c --- [ banner ] -------------------------------------------------------------
c 
c CaDiCaL Radically Simplified CDCL SAT Solver
c Copyright (c) 2016-2021 A. Biere, M. Fleury, N. Froleyks
c 
c Version 1.5.2 a5f15211db36c3956764e18194dd5bd63bf3b5e6
c g++ (GCC) 9.3.0 -Wall -Wextra -O3 -DNDEBUG
c Fri Oct 21 01:27:37 EDT 2022 Linux gra-login3 3.10.0-1160.66.1.el7.x86_64 x86_64
c 
c --- [ limit ] --------------------------------------------------------------
c 
c setting conflict limit to 200000 conflicts (due to '200000')
c 
c --- [ parsing input ] ------------------------------------------------------
c 
c reading DIMACS file from '33.cubes6443.adj'
c opening file to read '33.cubes6443.adj'
c found 'p cnf 6160 1595474' header
c parsed 1595474 clauses in 19.55 seconds process time
c closing file '33.cubes6443.adj'
c after reading 1457566765 bytes 1390.0 MB
c 
c --- [ options ] ------------------------------------------------------------
c 
c all options are set to their default value
c 
c --- [ solving ] ------------------------------------------------------------
c 
c time measured in process time since initialization
c 
c  seconds    reductions  redundant   irredundant
c          MB     restarts       trail       variables
c            level   conflicts       glue         remaining
c 
c * 19.56 1373  0 0   0    0    0  0% 0 1595422 2480 40%
c { 19.86 1389  0 0   0    0    0  0% 0 1595422 2480 40%
c i 21.80 1459 1267 0   2   39   29 42% 5 1595422 2478 40%
c i 22.19 1466 837 0   3   63   45 33% 4 1595422 2468 40%
c i 23.31 1481 729 0   6   76   56 32% 14 1595422 2455 40%
c i 23.74 1483 614 0  10   90   65 30% 15 1595422 2444 40%
c i 23.80 1484 593 0  11   93   67 30% 15 1595422 2443 40%
c i 23.87 1485 568 0  12   98   70 30% 15 1595422 2442 40%
c i 24.50 1488 453 0  19  128   94 30% 23 1595422 2441 40%
c i 24.69 1490 426 0  21  137  101 30% 23 1595422 2440 40%
c i 24.91 1490 406 0  23  145  107 29% 23 1595422 2439 40%
c i 25.04 1490 374 0  26  159  119 29% 25 1595422 2438 40%
c i 25.08 1490 363 0  27  164  122 29% 26 1595422 2437 40%
c i 25.26 1490 337 0  31  178  129 29% 25 1595422 2436 40%
c i 25.60 1492 297 0  39  207  155 29% 27 1595422 2435 40%
c i 25.73 1493 292 0  41  214  161 29% 30 1595422 2434 40%
c i 25.87 1493 288 0  43  220  165 29% 30 1595422 2433 39%
c - 30.45 1383 226 1  52  300  232 29% 30 226620 2433 39%
c i 30.65 1383 211 1  52  326  251 29% 29 226620 2426 39%
c i 30.78 1383 191 1  52  372  286 29% 29 226620 2424 39%
c 
c  seconds     reductions  redundant   irredundant
c          MB      restarts       trail       variables
c             level   conflicts       glue         remaining
c 
c i 31.12 1384 184 1  58  404  317 29% 32 226620 2420 39%
c i 31.13 1384 183 1  59  405  317 29% 32 226620 2402 39%
c i 31.22 1384 164 1  64  478  361 29% 31 226620 2401 39%
c i 31.23 1384 164 1  64  479  361 29% 31 226620 2400 39%
c i 31.25 1384 161 1  64  488  368 29% 31 226620 2399 39%
c i 31.38 1384 153 1  64  516  393 29% 30 226620 2398 39%
c i 31.39 1384 153 1  64  517  393 29% 30 226620 2397 39%
c i 31.40 1384 151 1  64  529  401 29% 29 226620 2396 39%
c i 31.43 1384 148 1  64  539  410 29% 29 226620 2395 39%
c i 31.46 1384 143 1  64  562  426 29% 29 226620 2394 39%
c i 31.47 1384 142 1  64  569  431 29% 29 226620 2393 39%
c i 31.53 1384 136 1  64  605  461 29% 29 226620 2392 39%
c i 31.83 1384 135 1  72  650  500 29% 29 226620 2391 39%
c i 31.94 1384 133 1  73  667  515 29% 29 226620 2390 39%
c i 31.94 1384 133 1  73  669  516 29% 29 226620 2389 39%
c i 32.17 1384 128 1  74  711  552 29% 29 226620 2388 39%
c i 32.32 1384 125 1  81  742  575 29% 30 226620 2387 39%
c i 32.34 1384 124 1  82  746  577 29% 30 226620 2386 39%
c i 32.38 1384 123 1  84  761  589 29% 30 226620 2385 39%
c i 32.50 1384 115 1  88  835  646 29% 29 226620 2383 39%
c 
c  seconds     reductions  redundant   irredundant
c          MB      restarts       trail       variables
c             level   conflicts       glue         remaining
c 
c i 32.62 1384 112 1  89  879  682 29% 30 226620 2324 38%
c i 32.64 1384 111 1  91  893  695 29% 30 226620 2323 38%
c i 32.74 1384 111 1  94  908  707 29% 30 226620 2320 38%
c i 32.76 1384 111 1  95  913  711 29% 30 226620 2319 38%
c i 32.77 1384 110 1  95  917  714 29% 30 226620 2318 38%
c i 32.91 1384 110 1  98  940  728 29% 30 226620 2317 38%
c i 33.14 1384 107 1 111 1001  776 29% 31 226620 2316 38%
c } 33.14 1384 107 1 111 1001  776 29% 31 226620 2316 38%
c [ 33.14 1384  0 1 111 1001  776  0% 0 226620 2316 38%
c O 33.14 1384  0 1 111 1002  776 12% 0 226620 2316 38%
c i 33.14 1384  0 1 111 1002  776 12% 0 226620 2309 37%
c - 33.83 1450 20 2 111 1115  733 33% 17 134855 2309 37%
c i 33.89 1450 21 2 111 1131  747 33% 18 134855 2308 37%
c i 33.92 1450 21 2 111 1188  780 33% 18 134855 2307 37%
c i 34.01 1450 22 2 111 1448  934 33% 19 134855 2306 37%
c i 34.01 1450 22 2 111 1453  934 33% 19 134855 2305 37%
c i 34.03 1450 22 2 111 1522  966 33% 19 134855 2304 37%
c i 34.03 1450 22 2 111 1523  966 33% 19 134855 2303 37%
c i 34.05 1450 22 2 111 1554  985 33% 19 134855 2302 37%
c i 34.08 1450 23 2 111 1726 1078 33% 20 134855 2301 37%
c 
c  seconds    reductions  redundant   irredundant
c          MB     restarts       trail       variables
c            level   conflicts       glue         remaining
c 
c i 34.08 1450 23 2 111 1762 1097 33% 20 134855 2300 37%
c i 34.09 1450 23 2 111 1794 1118 33% 20 134855 2299 37%
c i 34.09 1450 23 2 111 1803 1124 33% 20 134855 2298 37%
c i 34.09 1450 23 2 111 1808 1127 33% 20 134855 2297 37%
c - 34.34 1449 23 3 112 2131  909 33% 20 134819 2297 37%
c i 34.67 1449 25 3 112 2785 1281 54% 22 134819 2296 37%
c ] 34.72 1449 25 3 112 3001 1425 54% 22 134819 2296 37%
c { 34.72 1449 107 3 112 3001 1425 78% 31 134819 2296 37%
c F 34.73 1449 107 3 112 3003 1427 78% 31 134819 2296 37%
c i 34.80 1449 106 3 112 3012 1434 77% 30 134819 2295 37%
c i 34.81 1449 105 3 112 3019 1440 77% 30 134819 2294 37%
c i 34.84 1449 104 3 112 3032 1452 77% 30 134819 2293 37%
c i 34.86 1449 103 3 112 3048 1460 77% 30 134819 2292 37%
c i 34.99 1449 92 3 112 3203 1557 73% 28 134819 2291 37%
c i 35.01 1449 91 3 112 3225 1568 73% 28 134819 2290 37%
c i 35.03 1449 91 3 112 3227 1569 73% 28 134819 2289 37%
c i 35.10 1449 90 3 112 3258 1596 72% 28 134819 2288 37%
c i 35.11 1449 90 3 112 3266 1603 72% 28 134819 2287 37%
c i 35.12 1449 89 3 112 3274 1609 72% 28 134819 2286 37%
c - 35.98 1448 85 4 146 3487 1352 68% 29 134786 2286 37%
c 
c  seconds    reductions  redundant   irredundant
c          MB     restarts       trail       variables
c            level   conflicts       glue         remaining
c 
c i 36.19 1448 83 4 150 3579 1428 67% 29 134786 2285 37%
c i 36.59 1448 81 4 170 3723 1541 66% 30 134786 2284 37%
c i 36.68 1448 79 4 176 3808 1608 65% 29 134786 2283 37%
c i 36.70 1448 77 4 176 3855 1647 65% 29 134786 2282 37%
c i 36.83 1448 71 4 176 4105 1788 63% 28 134786 2281 37%
c i 36.83 1448 70 4 176 4113 1794 63% 28 134786 2280 37%
c i 36.86 1448 70 4 176 4174 1843 62% 28 134786 2279 37%
c i 37.22 1448 63 4 181 4649 2192 60% 27 134786 2278 37%
c i 37.35 1448 59 4 189 4939 2382 59% 26 134786 2277 37%
c 2 37.68 1448 58 4 189 5001 3874 59% 26 134739 2267 37%
c p 42.69 1448 58 4 189 5001 8305 59% 26 134739 2169 35%
c - 43.34 1384 56 5 190 5184 2030 58% 25 134453 2169 35%
c # 44.00 1384 48 5 190 6007 2528 57% 23 134453 2169 35%
c } 46.21 1385 46 5 306 7001 3300 55% 24 134453 2169 35%
c [ 46.21 1385 25 5 306 7001 3300 54% 22 134453 2169 35%
c - 46.39 1385 25 6 307 7215 2339 54% 21 134453 2169 35%
c - 48.61 1385 23 7 308 9586 2437 50% 20 134453 2169 35%
c I 48.92 1385 23 7 308 10009 2608 49% 20 134453 2169 35%
c - 51.54 1385 59 8 310 12294 3310 49% 47 134453 2169 35%
c ] 53.18 1385 81 8 311 15005 5493 49% 65 134453 2169 35%
c 
c  seconds    reductions   redundant   irredundant
c          MB     restarts        trail       variables
c            level    conflicts       glue         remaining
c 
c { 53.18 1385 46 8 311 15005 5493 55% 24 134453 2169 35%
c p 56.86 1385 46 8 311 15005 11309 55% 24 134453 2145 35%
c B 57.01 1385 46 8 311 15013 11317 55% 24 134453 2145 35%
c - 57.50 1385 45 9 311 15341 4125 55% 23 118196 2145 35%
c - 60.51 1385 36 10 361 18559 3897 53% 22 118196 2145 35%
c s 60.64 1385 36 10 361 18660 3729 53% 22 116543 2145 35%
c v 61.86 1385 36 10 361 18660 3729 53% 22 116532 2145 35%
c w 61.95 1385 36 10 361 18660 3723 53% 22 116532 2145 35%
c t 61.95 1385 36 10 361 18660 3719 53% 22 116523 2145 35%
c e 62.40 1386 36 10 361 18660 3328 53% 22 113052 554  9%
c s 62.47 1386 36 10 361 18660 3326 53% 22 112579 554  9%
c W 65.01 1386 32 10 366 21016 4668 92% 20 112579 554  9%
c - 67.38 1386 34 11 528 22098 4890 91% 21 112579 554  9%
c - 69.32 1386 31 12 607 25883 4516 92% 21 112579 554  9%
c F 70.39 1386 30 12 614 28022 6004 92% 20 112579 554  9%
c - 71.87 1386 29 13 725 29984 5095 92% 20 112579 554  9%
c 3 71.97 1386 29 13 725 30006 5310 92% 20 112577 553  9%
c p 73.32 1386 29 13 725 30006 6839 92% 20 112577 553  9%
c } 73.85 1386 28 13 725 31005 7420 92% 20 112577 553  9%
c [ 73.85 1386 81 13 725 31005 7420 203% 65 112577 553  9%
c 
c  seconds    reductions    redundant    irredundant
c          MB      restarts        trail        variables
c            level     conflicts        glue        remaining
c 
c - 74.85 1386 65 14 726 34402 5418 171% 52 112577 553  9%
c B 75.28 1386 60 14 728 36023 6354 161% 48 112577 553  9%
c - 76.54 1386 55 15 730 39135 5855 148% 45 112577 553  9%
c ] 76.73 1386 54 15 731 39822 6303 145% 44 112577 553  9%
c 1 76.73 1386 54 15 731 39822 6303 145% 44 112577 553  9%
c 
c --- [ writing output ] -----------------------------------------------------
c 
c writing simplified CNF to DIMACS file 'simp/33.cubes6443.adj.simp1'
c * 76.73 1386 54 15 731 39822 6303 145% 44 112577 553  9%
c opening file to write 'simp/33.cubes6443.adj.simp1'
c writing 'p cnf 6160 112577' header
c closing file 'simp/33.cubes6443.adj.simp1'
c after writing 58192299 bytes 55.5 MB
c wrote 112577 clauses in 0.42 seconds process time
c 
c --- [ writing extension ] --------------------------------------------------
c 
c writing extension stack to 'simp/33.cubes6443.adj.ext1'
c opening file to write 'simp/33.cubes6443.adj.ext1'
c closing file 'simp/33.cubes6443.adj.ext1'
c after writing 103654 bytes 0.1 MB
c wrote 4540 witnesses in 0.00 seconds process time
c 
c --- [ result ] -------------------------------------------------------------
c 
s SATISFIABLE
c 
c --- [ run-time profiling ] -------------------------------------------------
c 
c process time taken by individual solving procedures
c (percentage relative to process time for solving)
c 
c        44.45   77.75% search
c        32.60   57.02% unstable
c        19.55   34.20% parse
c        12.72   22.25% simplify
c        11.43   19.99% stable
c         9.99   17.47% probe
c         1.30    2.27% vivify
c         0.84    1.47% elim
c         0.30    0.53% lucky
c         0.13    0.23% subsume
c         0.12    0.21% walk
c         0.07    0.12% ternary
c   =================================
c        57.18   74.11% solve
c 
c last line shows process time for solving
c (percentage relative to total process time)
c 
c --- [ statistics ] ---------------------------------------------------------
c 
c chronological:              6590        16.55 %  of conflicts
c conflicts:                 39822       696.49    per second
c decisions:                 92310      1614.51    per second
c eliminated:                 1591        25.83 %  of all variables
c fixed:                       861        13.98 %  of all variables
c learned:                   39051        98.06 %  per conflict
c learned_lits:            7120060       100.00 %  learned literals
c minimized:                     0         0.00 %  learned literals
c shrunken:                5010980        70.38 %  learned literals
c minishrunken:             277391         3.90 %  learned literals
c propagations:            3852287         0.07 M  per second
c reduced:                   19318        48.51 %  per conflict
c rephased:                      8      4977.75    interval
c restarts:                    731        54.48    interval
c stabilizing:                   3        47.26 %  of conflicts
c substituted:                  11         0.18 %  of all variables
c subsumed:                  15145         0.45 %  of all clauses
c strengthened:               2298         0.07 %  of all clauses
c ternary:                    3171         0.70 %  of resolved
c vivified:                     20         0.00 %  of all clauses
c walked:                        1     39822.00    interval
c weakened:                   3679         3.03    average size
c 
c seconds are measured in process time for solving
c 
c --- [ resources ] ----------------------------------------------------------
c 
c total process time since initialization:        77.15    seconds
c total real time since initialization:           77.31    seconds
c maximum resident set size of process:         1515.26    MB
c 
c --- [ shutting down ] ------------------------------------------------------
c 
c exit 10
WARNING! DIMACS header mismatch: wrong number of variables.
============================[ Problem Statistics ]=============================
|                                                                             |
|  Number of variables:          2890                                         |
|  Number of clauses:          112577                                         |
|  Parse time:                   0.76 s                                       |
|  Simplification time:          0.01 s                                       |
|                                                                             |
============================[ Search Statistics ]====================================================
| Conflicts |          ORIGINAL         |          LEARNT          | Num Sols |      SUBGRAPHS      |
|           |    Vars  Clauses Literals |    Limit  Clauses Lit/Cl |          | Canonical Noncanon. |
=====================================================================================================
|       100 |    2795   112577 12280271 |     2000      100    247 |        0 |        15         0 |
|       254 |    2795   112581 12280313 |     2000      254    152 |        0 |        27         4 |
|       590 |    2795   112692 12282100 |     2000      590    112 |        0 |        66       115 |
|      1906 |    2795   113671 12296849 |     2000     1906     60 |        0 |       219      1094 |
|      2429 |    2795   113688 12297292 |     3601     1430     42 |        0 |       223      1111 |
|      3403 |    2795   113903 12301023 |     3601     2404     58 |        0 |       268      1326 |
|      5128 |    2795   114489 12310069 |     5001     2329     25 |        0 |       380      1912 |
|      6889 |    2795   114542 12311184 |     5001     4090     57 |        0 |       401      1965 |
|     12049 |    2795   117140 12345989 |     7552     3601     24 |        0 |       767      4563 |
|     16716 |    2795   117963 12357785 |     8778     4494     28 |        0 |       879      5386 |
|     22553 |    2795   118034 12359273 |     9995     5948     39 |        0 |       922      5457 |
|     35277 |    2795   122109 12416907 |    12406     8083     45 |        0 |      1563      9532 |
|     51235 |    2795   125093 12461387 |    14809    11044     28 |        0 |      1878     12516 |
|     83489 |    2788   137885 12624241 |    19607    10096     16 |        0 |      3009     25309 |
|    113142 |    2788   138346 12632549 |    22018    19560     53 |        0 |      3200     25770 |
|    166656 |    2787   148071 12759330 |    26814    25470     55 |        0 |      4582     35495 |
|    244637 |    2787   160368 12944640 |    32816    30453     49 |        0 |      5650     47792 |
=====================================================================================================
Number of solutions   : 0
Canonical subgraphs   : 6248           (36 /sec)
          order  3    : 1              (125000 /sec)
          order  4    : 1              (500000 /sec)
          order  5    : 1              (200000 /sec)
          order  6    : 1              (52632 /sec)
          order  7    : 1              (8333 /sec)
          order  8    : 1              (2326 /sec)
          order  9    : 2              (846 /sec)
          order 10    : 7              (428 /sec)
          order 11    : 10             (268 /sec)
          order 12    : 44             (149 /sec)
          order 13    : 72             (105 /sec)
          order 14    : 501            (68 /sec)
          order 15    : 2310           (49 /sec)
          order 16    : 2314           (31 /sec)
          order 17    : 620            (25 /sec)
          order 18    : 231            (20 /sec)
          order 19    : 106            (19 /sec)
          order 20    : 13             (23 /sec)
          order 21    : 12             (25 /sec)
          order 22    : 0              (-nan /sec)
Noncanonical subgraphs: 60333          (264 /sec)
          order  3    : 0              (-nan /sec)
          order  4    : 0              (-nan /sec)
          order  5    : 0              (-nan /sec)
          order  6    : 0              (-nan /sec)
          order  7    : 0              (-nan /sec)
          order  8    : 0              (-nan /sec)
          order  9    : 0              (-nan /sec)
          order 10    : 0              (-nan /sec)
          order 11    : 0              (-nan /sec)
          order 12    : 0              (-nan /sec)
          order 13    : 363            (20692 /sec)
          order 14    : 2218           (2910 /sec)
          order 15    : 5816           (1386 /sec)
          order 16    : 47404          (248 /sec)
          order 17    : 3954           (159 /sec)
          order 18    : 565            (87 /sec)
          order 19    : 0              (-nan /sec)
          order 20    : 0              (-nan /sec)
          order 21    : 0              (-nan /sec)
Canonicity checking   : 173.299 s
Noncanonicity checking: 228.376 s
Total canonicity time : 401.675 s
database reductions   : 27
restarts              : 662
conflicts             : 280152         (522 /sec)
decisions             : 413795         (0.00 % random) (770 /sec)
propagations          : 8696035        (16191 /sec)
conflict literals     : 23918711       (53.14 % deleted)
actual reward         : 0.349258
Memory used           : 179.00 MB
CPU time              : 537.088 s

UNSATISFIABLE
